1000
[102,105,119,120,121,125,129,131,134,137,141,145,148,152,155,156,157,158,163,164,172,173,178,185,187,188,192,199,200,203,206,209,210,218,224,228,233,235,238,242,243,258,262,267,275,280,282,284,289,290,294,295,300,305,307,313,314,316,320,321,322,325,327,329,330,335,338,339,344,345,348,349,351,353,360,361,362,365,368,369,373,374,375,382,383,385,391,395,403,404,408,409,410,411,412,416,418,422,423,425,428,431,433,434,440,443,444,446,448,455,463,469,474,476,479,482,483,496,504,507,515,516,520,528,530,538,539,545,547,548,551,559,563,576,577,578,581,583,586,588,589,590,593,595,596,599,603,608,612,616,617,618,619,631,640,642,645,646,648,653,655,658,661,663,665,666,667,669,670,674,676,680,691,694,698,700]
[1,1,1,1,2,2,1,1,2,2,1,1,2,1,1,1,2,1,1,2,2,1,1,1,2,1,1,1,1,1,1,1,1,1,1,1,1,1,2,1,3,1,2,1,2,1,1,1,1,1,1,1,1,1,1,1,1,1,1,1,1,1,1,1,2,1,1,1,1,1,1,1,1,1,1,1,1,1,1,1,1,1,1,1,1,1,1,1,2,2,2,2,1,1,1,1,1,1,1,1,1,1,1,1,1,1,1,1,1,1,1,1,1,1,1,1,1,1,1,1,1,1,1,1,1,1,1,1,1,1,1,1,1,1,2,1,2,1,1,1,2,1,2,1,1,1,1,1,1,1,1,1,1,2,1,1,1,1,1,1,1,1,1,1,1,1,1,1,1,1,1,1,1,1,1,1]
